<number of tasks>
50

<cycle time>
1000

<order strength>
0.2


<task times>
1 162
2 158
3 152
4 265
5 99
6 150
7 109
8 109
9 246
10 34
11 189
12 38
13 47
14 213
15 131
16 61
17 148
18 179
19 242
20 265
21 156
22 206
23 85
24 68
25 271
26 248
27 38
28 129
29 70
30 94
31 113
32 221
33 98
34 142
35 97
36 189
37 194
38 229
39 106
40 205
41 296
42 135
43 75
44 174
45 161
46 85
47 50
48 159
49 199
50 199

<precedence relations>
2,7
2,8
2,10
3,10
4,6
4,11
4,27
5,9
5,10
5,13
5,41
6,15
7,14
7,16
7,17
8,12
8,13
12,41
13,20
13,21
14,22
14,25
14,32
15,28
16,19
16,23
17,18
17,24
18,26
18,28
18,30
20,26
21,27
21,47
21,49
22,29
24,39
25,29
26,34
28,31
29,35
29,49
30,32
30,33
30,36
30,37
31,42
32,41
32,44
33,38
33,40
33,43
34,43
35,39
38,47
40,47
40,48
40,49
41,50
42,45
42,46

<end>
